5
---
80.4 -1.0
99.4 53.0
94.8 53.7
68.1 89.5
71.8 78.6
---
10
---
32.2
31.7
14.9
23.0
38.5
39.4
15.8
31.8
30.9
34.7
---
-1.0 7.1 83.5 40.6 3.9 82.9 58.0 8.4 15.3 44.3 7.2 
7.1 -1.0 63.3 32.6 3.6 72.2 46.6 1.4 5.5 29.9 1.7 
83.5 63.3 -1.0 13.2 82.7 8.7 8.2 62.9 38.0 9.8 77.9 
40.6 32.6 13.2 -1.0 42.0 9.2 2.2 34.8 20.8 3.2 44.4 
3.9 3.6 82.7 42.0 -1.0 87.4 58.5 4.9 12.3 42.7 3.4 
82.9 72.2 8.7 9.2 87.4 -1.0 4.3 74.7 51.1 12.1 89.3 
58.0 46.6 8.2 2.2 58.5 4.3 -1.0 48.9 30.7 3.9 60.6 
8.4 1.4 62.9 34.8 4.9 74.7 48.9 -1.0 4.3 32.0 1.3 
15.3 5.5 38.0 20.8 12.3 51.1 30.7 4.3 -1.0 17.9 8.6 
44.3 29.9 9.8 3.2 42.7 12.1 3.9 32.0 17.9 -1.0 41.7 
7.2 1.7 77.9 44.4 3.4 89.3 60.6 1.3 8.6 41.7 -1.0 
---
1.0 1.0 1.0 1.0 1.0 1.0 1.0 1.0 1.0 1.0 1.0 
1.0 1.0 1.0 1.0 1.0 1.0 1.0 1.0 1.0 1.0 1.0 
1.0 1.0 1.0 1.0 1.0 1.0 1.0 1.0 1.0 1.0 1.0 
1.0 1.0 1.0 1.0 1.0 1.0 1.0 1.0 1.0 1.0 1.0 
1.0 1.0 1.0 1.0 1.0 1.0 1.0 1.0 1.0 1.0 1.0 
1.0 1.0 1.0 1.0 1.0 1.0 1.0 1.0 1.0 1.0 1.0 
1.0 1.0 1.0 1.0 1.0 1.0 1.0 1.0 1.0 1.0 1.0 
1.0 1.0 1.0 1.0 1.0 1.0 1.0 1.0 1.0 1.0 1.0 
1.0 1.0 1.0 1.0 1.0 1.0 1.0 1.0 1.0 1.0 1.0 
1.0 1.0 1.0 1.0 1.0 1.0 1.0 1.0 1.0 1.0 1.0 
1.0 1.0 1.0 1.0 1.0 1.0 1.0 1.0 1.0 1.0 1.0 
